8
0 141 275 44 44 16 455 340
141 0 660 34 102 318 64 236
275 660 0 158 736 476 38 148
44 34 158 0 94 397 351 176
44 102 736 94 0 18 304 282
16 318 476 397 18 0 267 613
455 64 38 351 304 267 0 109
340 236 148 176 282 613 109 0